123 5
10 10 10 10 10 

0 0 0 0 0 0 1 2 
0 0 0 0 0 0 3 3 4 8 
9 0 0 0 0 5 3 12 6 5 
10 0 0 0 0 9 2 7 5 
4 0 0 0 0 4 3 11 10 9 
9 0 0 0 0 10 3 11 10 9 
4 0 0 0 0 9 2 12 10 
4 0 0 0 0 10 1 9 
7 0 0 0 0 5 1 13 
8 0 0 0 0 10 1 13 
8 0 0 0 0 5 1 13 
3 0 0 0 0 8 1 13 
0 0 0 0 0 0 1 14 
0 0 0 0 0 0 3 15 16 17 
8 0 0 0 0 1 4 24 20 19 18 
6 0 0 0 0 10 3 23 20 18 
3 0 0 0 0 10 2 21 20 
6 0 0 0 0 9 2 22 21 
1 0 0 0 0 10 2 23 21 
9 0 0 0 0 5 1 22 
10 0 0 0 0 9 1 25 
9 0 0 0 0 8 1 25 
1 0 0 0 0 7 1 25 
8 0 0 0 0 6 1 25 
0 0 0 0 0 0 1 26 
0 0 0 0 0 0 7 27 28 30 31 32 35 36 
4 0 0 0 3 0 2 34 29 
3 0 0 0 10 0 2 34 29 
7 0 0 0 9 0 1 33 
6 0 0 0 6 0 1 33 
8 0 0 0 10 0 1 33 
5 0 0 0 6 0 1 33 
10 0 0 0 7 0 1 37 
8 0 0 0 9 0 1 37 
8 0 0 0 9 0 1 37 
3 0 0 0 6 0 1 37 
0 0 0 0 0 0 2 38 50 
0 0 0 0 0 0 7 39 40 42 45 46 47 48 
4 0 0 1 0 0 2 44 41 
5 0 0 10 0 0 1 41 
3 0 0 7 0 0 1 43 
7 0 0 6 0 0 1 43 
5 0 0 8 0 0 1 49 
8 0 0 6 0 0 1 49 
10 0 0 10 0 0 1 49 
8 0 0 10 0 0 2 49 94 
3 0 0 8 0 0 1 49 
2 0 0 9 0 0 1 49 
0 0 0 0 0 0 1 62 
0 0 0 0 0 0 3 51 53 55 
7 0 0 0 0 2 2 54 52 
10 0 0 0 0 6 5 60 59 58 57 56 
8 0 0 0 0 10 4 60 58 57 56 
7 0 0 0 0 8 2 58 57 
9 0 0 0 0 9 2 59 56 
7 0 0 0 0 10 1 61 
1 0 0 0 0 10 1 61 
10 0 0 0 0 5 1 61 
6 0 0 0 0 5 1 61 
9 0 0 0 0 10 1 61 
0 0 0 0 0 0 1 62 
0 0 0 0 0 0 5 63 75 87 99 111 
0 0 0 0 0 0 5 64 65 66 67 68 
4 2 0 0 0 0 3 73 71 70 
3 6 0 0 0 0 3 73 70 69 
8 10 0 0 0 0 2 73 69 
4 10 0 0 0 0 2 71 69 
9 10 0 0 0 0 2 70 69 
10 9 0 0 0 0 1 72 
5 5 0 0 0 0 1 72 
2 10 0 0 0 0 1 72 
5 4 0 0 0 0 1 74 
6 9 0 0 0 0 1 74 
0 0 0 0 0 0 1 123 
0 0 0 0 0 0 3 76 77 78 
9 0 0 0 1 0 6 85 84 83 82 81 79 
4 0 0 0 10 0 5 85 84 82 81 79 
9 0 0 0 7 0 4 83 82 81 80 
3 0 0 0 10 0 1 80 
10 0 0 0 6 0 1 86 
4 0 0 0 6 0 1 86 
6 0 0 0 10 0 1 86 
9 0 0 0 5 0 1 86 
5 0 0 0 10 0 1 86 
6 0 0 0 10 0 1 86 
0 0 0 0 0 0 1 123 
0 0 0 0 0 0 3 88 89 90 
7 0 5 0 0 0 4 97 96 92 91 
1 0 6 0 0 0 5 97 96 95 94 92 
10 0 5 0 0 0 2 92 91 
6 0 10 0 0 0 3 95 94 93 
7 0 6 0 0 0 1 93 
2 0 10 0 0 0 1 98 
9 0 10 0 0 0 1 98 
4 0 7 0 0 0 1 98 
5 0 6 0 0 0 1 98 
1 0 10 0 0 0 1 98 
0 0 0 0 0 0 1 123 
0 0 0 0 0 0 5 100 101 102 103 109 
1 0 0 0 2 0 4 108 107 106 105 
6 0 0 0 6 0 3 107 105 104 
9 0 0 0 7 0 2 107 105 
4 0 0 0 10 0 2 106 105 
1 0 0 0 10 0 1 106 
4 0 0 0 10 0 1 110 
10 0 0 0 8 0 1 110 
2 0 0 0 6 0 1 110 
2 0 0 0 7 0 1 110 
2 0 0 0 9 0 1 110 
0 0 0 0 0 0 1 123 
0 0 0 0 0 0 2 112 113 
6 0 0 1 0 0 5 119 118 117 115 114 
2 0 0 8 0 0 4 117 116 115 114 
10 0 0 7 0 0 2 121 120 
5 0 0 8 0 0 2 121 120 
7 0 0 9 0 0 2 121 120 
7 0 0 10 0 0 1 120 
10 0 0 7 0 0 1 121 
3 0 0 6 0 0 1 120 
2 0 0 9 0 0 1 122 
8 0 0 10 0 0 1 122 
0 0 0 0 0 0 1 123 
0 0 0 0 0 0 0 
